1132
1129
1129
1064
1061
1035
1035
1035
1065
1065
1032
1021
1081
1081
1051
1061
1011
1011
1011
1011
986
1011
1011
1011
1011
1028
1003
1057
1057
1039
1033
1033
1009
1009
1009
1046
1007
1004
1007
1044
1044
1050
1042
995
995
995
951
951
917
917
901
874
874
874
1006
955
941
942
920
896
896
920
920
920
920
875
875
962
987
987
936
936
934
950
950
997
914
968
929
929
929
1023
900
899
899
903
903
903
920
965
949
907
928
813
813
813
813
813
821
841
